FourierSAT_Github_AIJ/benchmarks/MAXSAT_benchmarks/1/abrame-habet/v140/s2v140c2300-2.cnf
c Generated after 1 tries
c Graph with 140 nodes and 1150 edges, Max edges:9730
c generated from an undirected graph
c to solve unweighted MaxCut
p cnf 140 2300
1 3 0
-1 -3 0
1 14 0
-1 -14 0
1 41 0
-1 -41 0
1 51 0
-1 -51 0
1 53 0
-1 -53 0
1 83 0
-1 -83 0
1 87 0
-1 -87 0
1 98 0
-1 -98 0
1 111 0
-1 -111 0
1 121 0
-1 -121 0
1 122 0
-1 -122 0
1 130 0
-1 -130 0
1 135 0
-1 -135 0
1 139 0
-1 -139 0
2 5 0
-2 -5 0
2 6 0
-2 -6 0
2 8 0
-2 -8 0
2 10 0
-2 -10 0
2 18 0
-2 -18 0
2 20 0
-2 -20 0
2 21 0
-2 -21 0
2 26 0
-2 -26 0
2 36 0
-2 -36 0
2 53 0
-2 -53 0
2 54 0
-2 -54 0
2 56 0
-2 -56 0
2 61 0
-2 -61 0
2 64 0
-2 -64 0
2 74 0
-2 -74 0
2 86 0
-2 -86 0
2 91 0
-2 -91 0
2 99 0
-2 -99 0
2 104 0
-2 -104 0
2 111 0
-2 -111 0
2 119 0
-2 -119 0
2 120 0
-2 -120 0
2 136 0
-2 -136 0
2 140 0
-2 -140 0
3 16 0
-3 -16 0
3 23 0
-3 -23 0
3 31 0
-3 -31 0
3 39 0
-3 -39 0
3 48 0
-3 -48 0
3 51 0
-3 -51 0
3 60 0
-3 -60 0
3 70 0
-3 -70 0
3 78 0
-3 -78 0
3 89 0
-3 -89 0
3 93 0
-3 -93 0
3 98 0
-3 -98 0
3 104 0
-3 -104 0
3 108 0
-3 -108 0
3 110 0
-3 -110 0
3 115 0
-3 -115 0
3 127 0
-3 -127 0
3 138 0
-3 -138 0
4 8 0
-4 -8 0
4 31 0
-4 -31 0
4 37 0
-4 -37 0
4 51 0
-4 -51 0
4 53 0
-4 -53 0
4 54 0
-4 -54 0
4 59 0
-4 -59 0
4 66 0
-4 -66 0
4 79 0
-4 -79 0
4 83 0
-4 -83 0
4 84 0
-4 -84 0
4 95 0
-4 -95 0
4 100 0
-4 -100 0
4 112 0
-4 -112 0
4 114 0
-4 -114 0
4 122 0
-4 -122 0
4 125 0
-4 -125 0
4 129 0
-4 -129 0
4 134 0
-4 -134 0
5 10 0
-5 -10 0
5 21 0
-5 -21 0
5 28 0
-5 -28 0
5 32 0
-5 -32 0
5 34 0
-5 -34 0
5 42 0
-5 -42 0
5 55 0
-5 -55 0
5 62 0
-5 -62 0
5 76 0
-5 -76 0
5 86 0
-5 -86 0
5 89 0
-5 -89 0
5 91 0
-5 -91 0
5 105 0
-5 -105 0
5 106 0
-5 -106 0
5 108 0
-5 -108 0
5 133 0
-5 -133 0
6 9 0
-6 -9 0
6 22 0
-6 -22 0
6 33 0
-6 -33 0
6 34 0
-6 -34 0
6 37 0
-6 -37 0
6 47 0
-6 -47 0
6 59 0
-6 -59 0
6 63 0
-6 -63 0
6 75 0
-6 -75 0
6 78 0
-6 -78 0
6 114 0
-6 -114 0
6 120 0
-6 -120 0
6 122 0
-6 -122 0
6 132 0
-6 -132 0
7 34 0
-7 -34 0
7 44 0
-7 -44 0
7 51 0
-7 -51 0
7 58 0
-7 -58 0
7 99 0
-7 -99 0
7 110 0
-7 -110 0
7 113 0
-7 -113 0
7 122 0
-7 -122 0
7 129 0
-7 -129 0
7 130 0
-7 -130 0
7 138 0
-7 -138 0
8 34 0
-8 -34 0
8 40 0
-8 -40 0
8 61 0
-8 -61 0
8 72 0
-8 -72 0
8 73 0
-8 -73 0
8 74 0
-8 -74 0
8 88 0
-8 -88 0
8 89 0
-8 -89 0
8 99 0
-8 -99 0
8 104 0
-8 -104 0
8 108 0
-8 -108 0
8 109 0
-8 -109 0
8 114 0
-8 -114 0
8 117 0
-8 -117 0
8 128 0
-8 -128 0
8 131 0
-8 -131 0
8 132 0
-8 -132 0
9 13 0
-9 -13 0
9 18 0
-9 -18 0
9 25 0
-9 -25 0
9 26 0
-9 -26 0
9 27 0
-9 -27 0
9 31 0
-9 -31 0
9 32 0
-9 -32 0
9 34 0
-9 -34 0
9 53 0
-9 -53 0
9 56 0
-9 -56 0
9 58 0
-9 -58 0
9 78 0
-9 -78 0
9 85 0
-9 -85 0
9 106 0
-9 -106 0
9 131 0
-9 -131 0
10 12 0
-10 -12 0
10 28 0
-10 -28 0
10 37 0
-10 -37 0
10 41 0
-10 -41 0
10 44 0
-10 -44 0
10 50 0
-10 -50 0
10 51 0
-10 -51 0
10 55 0
-10 -55 0
10 60 0
-10 -60 0
10 64 0
-10 -64 0
10 106 0
-10 -106 0
10 107 0
-10 -107 0
10 111 0
-10 -111 0
10 112 0
-10 -112 0
10 113 0
-10 -113 0
10 115 0
-10 -115 0
10 117 0
-10 -117 0
10 121 0
-10 -121 0
10 127 0
-10 -127 0
10 133 0
-10 -133 0
10 138 0
-10 -138 0
11 14 0
-11 -14 0
11 16 0
-11 -16 0
11 26 0
-11 -26 0
11 33 0
-11 -33 0
11 37 0
-11 -37 0
11 42 0
-11 -42 0
11 44 0
-11 -44 0
11 50 0
-11 -50 0
11 51 0
-11 -51 0
11 53 0
-11 -53 0
11 65 0
-11 -65 0
11 82 0
-11 -82 0
11 93 0
-11 -93 0
11 113 0
-11 -113 0
11 120 0
-11 -120 0
11 124 0
-11 -124 0
11 127 0
-11 -127 0
11 136 0
-11 -136 0
11 138 0
-11 -138 0
12 16 0
-12 -16 0
12 17 0
-12 -17 0
12 23 0
-12 -23 0
12 35 0
-12 -35 0
12 43 0
-12 -43 0
12 46 0
-12 -46 0
12 58 0
-12 -58 0
12 62 0
-12 -62 0
12 71 0
-12 -71 0
12 85 0
-12 -85 0
12 91 0
-12 -91 0
12 95 0
-12 -95 0
12 97 0
-12 -97 0
12 98 0
-12 -98 0
12 100 0
-12 -100 0
12 106 0
-12 -106 0
12 107 0
-12 -107 0
12 109 0
-12 -109 0
12 115 0
-12 -115 0
12 126 0
-12 -126 0
13 20 0
-13 -20 0
13 31 0
-13 -31 0
13 34 0
-13 -34 0
13 37 0
-13 -37 0
13 43 0
-13 -43 0
13 49 0
-13 -49 0
13 108 0
-13 -108 0
13 112 0
-13 -112 0
13 116 0
-13 -116 0
13 118 0
-13 -118 0
13 119 0
-13 -119 0
13 123 0
-13 -123 0
13 127 0
-13 -127 0
14 18 0
-14 -18 0
14 21 0
-14 -21 0
14 27 0
-14 -27 0
14 29 0
-14 -29 0
14 37 0
-14 -37 0
14 58 0
-14 -58 0
14 60 0
-14 -60 0
14 70 0
-14 -70 0
14 74 0
-14 -74 0
14 85 0
-14 -85 0
14 89 0
-14 -89 0
14 90 0
-14 -90 0
14 96 0
-14 -96 0
14 101 0
-14 -101 0
14 112 0
-14 -112 0
14 117 0
-14 -117 0
14 135 0
-14 -135 0
15 24 0
-15 -24 0
15 55 0
-15 -55 0
15 57 0
-15 -57 0
15 76 0
-15 -76 0
15 79 0
-15 -79 0
15 80 0
-15 -80 0
15 82 0
-15 -82 0
15 89 0
-15 -89 0
15 102 0
-15 -102 0
15 105 0
-15 -105 0
15 113 0
-15 -113 0
15 134 0
-15 -134 0
15 137 0
-15 -137 0
16 26 0
-16 -26 0
16 30 0
-16 -30 0
16 37 0
-16 -37 0
16 41 0
-16 -41 0
16 61 0
-16 -61 0
16 64 0
-16 -64 0
16 69 0
-16 -69 0
16 71 0
-16 -71 0
16 82 0
-16 -82 0
16 92 0
-16 -92 0
16 118 0
-16 -118 0
16 132 0
-16 -132 0
16 138 0
-16 -138 0
17 21 0
-17 -21 0
17 46 0
-17 -46 0
17 74 0
-17 -74 0
17 81 0
-17 -81 0
17 92 0
-17 -92 0
17 98 0
-17 -98 0
17 101 0
-17 -101 0
17 116 0
-17 -116 0
18 24 0
-18 -24 0
18 40 0
-18 -40 0
18 53 0
-18 -53 0
18 54 0
-18 -54 0
18 61 0
-18 -61 0
18 63 0
-18 -63 0
18 85 0
-18 -85 0
18 87 0
-18 -87 0
18 94 0
-18 -94 0
18 110 0
-18 -110 0
18 115 0
-18 -115 0
18 128 0
-18 -128 0
18 133 0
-18 -133 0
18 139 0
-18 -139 0
19 24 0
-19 -24 0
19 41 0
-19 -41 0
19 47 0
-19 -47 0
19 51 0
-19 -51 0
19 57 0
-19 -57 0
19 65 0
-19 -65 0
19 71 0
-19 -71 0
19 72 0
-19 -72 0
19 89 0
-19 -89 0
19 90 0
-19 -90 0
19 99 0
-19 -99 0
19 112 0
-19 -112 0
19 128 0
-19 -128 0
19 133 0
-19 -133 0
19 139 0
-19 -139 0
20 26 0
-20 -26 0
20 29 0
-20 -29 0
20 33 0
-20 -33 0
20 50 0
-20 -50 0
20 61 0
-20 -61 0
20 77 0
-20 -77 0
20 86 0
-20 -86 0
20 120 0
-20 -120 0
20 131 0
-20 -131 0
20 134 0
-20 -134 0
20 135 0
-20 -135 0
20 138 0
-20 -138 0
20 140 0
-20 -140 0
21 34 0
-21 -34 0
21 38 0
-21 -38 0
21 41 0
-21 -41 0
21 44 0
-21 -44 0
21 53 0
-21 -53 0
21 54 0
-21 -54 0
21 59 0
-21 -59 0
21 77 0
-21 -77 0
21 78 0
-21 -78 0
21 85 0
-21 -85 0
21 94 0
-21 -94 0
21 96 0
-21 -96 0
21 100 0
-21 -100 0
21 102 0
-21 -102 0
21 107 0
-21 -107 0
21 135 0
-21 -135 0
21 139 0
-21 -139 0
22 32 0
-22 -32 0
22 39 0
-22 -39 0
22 47 0
-22 -47 0
22 54 0
-22 -54 0
22 62 0
-22 -62 0
22 69 0
-22 -69 0
22 78 0
-22 -78 0
22 80 0
-22 -80 0
22 82 0
-22 -82 0
22 88 0
-22 -88 0
22 90 0
-22 -90 0
22 109 0
-22 -109 0
22 128 0
-22 -128 0
22 132 0
-22 -132 0
22 136 0
-22 -136 0
22 138 0
-22 -138 0
23 25 0
-23 -25 0
23 31 0
-23 -31 0
23 40 0
-23 -40 0
23 41 0
-23 -41 0
23 51 0
-23 -51 0
23 54 0
-23 -54 0
23 57 0
-23 -57 0
23 81 0
-23 -81 0
23 83 0
-23 -83 0
23 101 0
-23 -101 0
23 114 0
-23 -114 0
23 120 0
-23 -120 0
23 121 0
-23 -121 0
23 128 0
-23 -128 0
23 131 0
-23 -131 0
23 132 0
-23 -132 0
23 135 0
-23 -135 0
23 139 0
-23 -139 0
24 29 0
-24 -29 0
24 30 0
-24 -30 0
24 31 0
-24 -31 0
24 38 0
-24 -38 0
24 41 0
-24 -41 0
24 54 0
-24 -54 0
24 56 0
-24 -56 0
24 82 0
-24 -82 0
24 87 0
-24 -87 0
24 91 0
-24 -91 0
24 96 0
-24 -96 0
24 97 0
-24 -97 0
24 103 0
-24 -103 0
24 113 0
-24 -113 0
24 117 0
-24 -117 0
24 120 0
-24 -120 0
24 134 0
-24 -134 0
25 26 0
-25 -26 0
25 35 0
-25 -35 0
25 38 0
-25 -38 0
25 51 0
-25 -51 0
25 53 0
-25 -53 0
25 54 0
-25 -54 0
25 67 0
-25 -67 0
25 89 0
-25 -89 0
25 95 0
-25 -95 0
25 106 0
-25 -106 0
25 109 0
-25 -109 0
25 116 0
-25 -116 0
25 124 0
-25 -124 0
25 125 0
-25 -125 0
25 134 0
-25 -134 0
26 27 0
-26 -27 0
26 37 0
-26 -37 0
26 48 0
-26 -48 0
26 52 0
-26 -52 0
26 65 0
-26 -65 0
26 67 0
-26 -67 0
26 87 0
-26 -87 0
26 92 0
-26 -92 0
26 125 0
-26 -125 0
26 128 0
-26 -128 0
26 129 0
-26 -129 0
26 138 0
-26 -138 0
27 37 0
-27 -37 0
27 39 0
-27 -39 0
27 64 0
-27 -64 0
27 65 0
-27 -65 0
27 72 0
-27 -72 0
27 77 0
-27 -77 0
27 90 0
-27 -90 0
27 102 0
-27 -102 0
27 106 0
-27 -106 0
27 110 0
-27 -110 0
27 114 0
-27 -114 0
27 124 0
-27 -124 0
28 30 0
-28 -30 0
28 31 0
-28 -31 0
28 44 0
-28 -44 0
28 47 0
-28 -47 0
28 51 0
-28 -51 0
28 54 0
-28 -54 0
28 58 0
-28 -58 0
28 59 0
-28 -59 0
28 66 0
-28 -66 0
28 78 0
-28 -78 0
28 104 0
-28 -104 0
28 109 0
-28 -109 0
28 127 0
-28 -127 0
28 130 0
-28 -130 0
28 133 0
-28 -133 0
28 134 0
-28 -134 0
29 33 0
-29 -33 0
29 39 0
-29 -39 0
29 46 0
-29 -46 0
29 95 0
-29 -95 0
29 121 0
-29 -121 0
29 136 0
-29 -136 0
29 140 0
-29 -140 0
30 44 0
-30 -44 0
30 56 0
-30 -56 0
30 57 0
-30 -57 0
30 60 0
-30 -60 0
30 67 0
-30 -67 0
30 69 0
-30 -69 0
30 73 0
-30 -73 0
30 89 0
-30 -89 0
30 94 0
-30 -94 0
30 100 0
-30 -100 0
30 116 0
-30 -116 0
30 131 0
-30 -131 0
30 135 0
-30 -135 0
30 136 0
-30 -136 0
30 140 0
-30 -140 0
31 36 0
-31 -36 0
31 41 0
-31 -41 0
31 46 0
-31 -46 0
31 59 0
-31 -59 0
31 64 0
-31 -64 0
31 73 0
-31 -73 0
31 118 0
-31 -118 0
31 122 0
-31 -122 0
31 128 0
-31 -128 0
32 40 0
-32 -40 0
32 59 0
-32 -59 0
32 61 0
-32 -61 0
32 73 0
-32 -73 0
32 80 0
-32 -80 0
32 92 0
-32 -92 0
32 111 0
-32 -111 0
32 112 0
-32 -112 0
32 115 0
-32 -115 0
32 123 0
-32 -123 0
32 140 0
-32 -140 0
33 41 0
-33 -41 0
33 45 0
-33 -45 0
33 47 0
-33 -47 0
33 51 0
-33 -51 0
33 59 0
-33 -59 0
33 65 0
-33 -65 0
33 67 0
-33 -67 0
33 73 0
-33 -73 0
33 79 0
-33 -79 0
33 86 0
-33 -86 0
33 92 0
-33 -92 0
33 97 0
-33 -97 0
34 37 0
-34 -37 0
34 45 0
-34 -45 0
34 52 0
-34 -52 0
34 55 0
-34 -55 0
34 60 0
-34 -60 0
34 70 0
-34 -70 0
34 73 0
-34 -73 0
34 100 0
-34 -100 0
34 104 0
-34 -104 0
34 116 0
-34 -116 0
34 118 0
-34 -118 0
34 122 0
-34 -122 0
34 124 0
-34 -124 0
34 129 0
-34 -129 0
35 48 0
-35 -48 0
35 55 0
-35 -55 0
35 63 0
-35 -63 0
35 66 0
-35 -66 0
35 72 0
-35 -72 0
35 85 0
-35 -85 0
35 99 0
-35 -99 0
35 102 0
-35 -102 0
35 103 0
-35 -103 0
35 111 0
-35 -111 0
35 127 0
-35 -127 0
35 133 0
-35 -133 0
35 136 0
-35 -136 0
36 38 0
-36 -38 0
36 46 0
-36 -46 0
36 64 0
-36 -64 0
36 65 0
-36 -65 0
36 75 0
-36 -75 0
36 96 0
-36 -96 0
36 98 0
-36 -98 0
36 111 0
-36 -111 0
36 113 0
-36 -113 0
36 119 0
-36 -119 0
36 129 0
-36 -129 0
36 139 0
-36 -139 0
37 40 0
-37 -40 0
37 68 0
-37 -68 0
37 71 0
-37 -71 0
37 75 0
-37 -75 0
37 98 0
-37 -98 0
37 99 0
-37 -99 0
37 101 0
-37 -101 0
37 110 0
-37 -110 0
37 115 0
-37 -115 0
37 125 0
-37 -125 0
37 126 0
-37 -126 0
37 139 0
-37 -139 0
38 43 0
-38 -43 0
38 46 0
-38 -46 0
38 48 0
-38 -48 0
38 50 0
-38 -50 0
38 66 0
-38 -66 0
38 70 0
-38 -70 0
38 94 0
-38 -94 0
38 96 0
-38 -96 0
38 97 0
-38 -97 0
38 103 0
-38 -103 0
38 104 0
-38 -104 0
38 118 0
-38 -118 0
38 121 0
-38 -121 0
38 136 0
-38 -136 0
38 138 0
-38 -138 0
39 47 0
-39 -47 0
39 62 0
-39 -62 0
39 65 0
-39 -65 0
39 67 0
-39 -67 0
39 84 0
-39 -84 0
39 86 0
-39 -86 0
39 97 0
-39 -97 0
39 100 0
-39 -100 0
39 105 0
-39 -105 0
39 111 0
-39 -111 0
39 127 0
-39 -127 0
39 128 0
-39 -128 0
40 43 0
-40 -43 0
40 52 0
-40 -52 0
40 58 0
-40 -58 0
40 65 0
-40 -65 0
40 66 0
-40 -66 0
40 92 0
-40 -92 0
40 107 0
-40 -107 0
40 117 0
-40 -117 0
40 140 0
-40 -140 0
41 43 0
-41 -43 0
41 68 0
-41 -68 0
41 73 0
-41 -73 0
41 87 0
-41 -87 0
41 102 0
-41 -102 0
41 113 0
-41 -113 0
41 119 0
-41 -119 0
41 120 0
-41 -120 0
41 134 0
-41 -134 0
42 49 0
-42 -49 0
42 52 0
-42 -52 0
42 67 0
-42 -67 0
42 70 0
-42 -70 0
42 86 0
-42 -86 0
42 98 0
-42 -98 0
42 102 0
-42 -102 0
42 117 0
-42 -117 0
42 119 0
-42 -119 0
43 47 0
-43 -47 0
43 49 0
-43 -49 0
43 53 0
-43 -53 0
43 62 0
-43 -62 0
43 65 0
-43 -65 0
43 71 0
-43 -71 0
43 76 0
-43 -76 0
43 89 0
-43 -89 0
43 101 0
-43 -101 0
43 107 0
-43 -107 0
43 108 0
-43 -108 0
43 123 0
-43 -123 0
43 130 0
-43 -130 0
43 134 0
-43 -134 0
43 135 0
-43 -135 0
43 137 0
-43 -137 0
43 138 0
-43 -138 0
44 52 0
-44 -52 0
44 58 0
-44 -58 0
44 59 0
-44 -59 0
44 72 0
-44 -72 0
44 73 0
-44 -73 0
44 81 0
-44 -81 0
44 110 0
-44 -110 0
44 112 0
-44 -112 0
44 116 0
-44 -116 0
44 117 0
-44 -117 0
44 119 0
-44 -119 0
44 126 0
-44 -126 0
45 52 0
-45 -52 0
45 61 0
-45 -61 0
45 70 0
-45 -70 0
45 81 0
-45 -81 0
45 83 0
-45 -83 0
45 89 0
-45 -89 0
45 98 0
-45 -98 0
45 114 0
-45 -114 0
45 120 0
-45 -120 0
45 121 0
-45 -121 0
45 125 0
-45 -125 0
45 126 0
-45 -126 0
46 55 0
-46 -55 0
46 56 0
-46 -56 0
46 59 0
-46 -59 0
46 60 0
-46 -60 0
46 61 0
-46 -61 0
46 68 0
-46 -68 0
46 71 0
-46 -71 0
46 74 0
-46 -74 0
46 88 0
-46 -88 0
46 95 0
-46 -95 0
46 101 0
-46 -101 0
46 103 0
-46 -103 0
46 104 0
-46 -104 0
47 48 0
-47 -48 0
47 60 0
-47 -60 0
47 80 0
-47 -80 0
47 110 0
-47 -110 0
47 114 0
-47 -114 0
47 124 0
-47 -124 0
47 133 0
-47 -133 0
47 139 0
-47 -139 0
48 50 0
-48 -50 0
48 59 0
-48 -59 0
48 60 0
-48 -60 0
48 64 0
-48 -64 0
48 67 0
-48 -67 0
48 72 0
-48 -72 0
48 74 0
-48 -74 0
48 84 0
-48 -84 0
48 88 0
-48 -88 0
48 104 0
-48 -104 0
48 107 0
-48 -107 0
48 117 0
-48 -117 0
48 131 0
-48 -131 0
49 52 0
-49 -52 0
49 68 0
-49 -68 0
49 85 0
-49 -85 0
49 97 0
-49 -97 0
49 99 0
-49 -99 0
49 125 0
-49 -125 0
49 127 0
-49 -127 0
49 128 0
-49 -128 0
50 62 0
-50 -62 0
50 72 0
-50 -72 0
50 78 0
-50 -78 0
50 89 0
-50 -89 0
50 102 0
-50 -102 0
50 113 0
-50 -113 0
50 116 0
-50 -116 0
50 117 0
-50 -117 0
50 120 0
-50 -120 0
50 133 0
-50 -133 0
50 134 0
-50 -134 0
50 136 0
-50 -136 0
51 56 0
-51 -56 0
51 60 0
-51 -60 0
51 61 0
-51 -61 0
51 65 0
-51 -65 0
51 67 0
-51 -67 0
51 84 0
-51 -84 0
51 85 0
-51 -85 0
51 93 0
-51 -93 0
51 96 0
-51 -96 0
51 112 0
-51 -112 0
51 126 0
-51 -126 0
51 139 0
-51 -139 0
52 65 0
-52 -65 0
52 68 0
-52 -68 0
52 71 0
-52 -71 0
52 102 0
-52 -102 0
52 110 0
-52 -110 0
52 120 0
-52 -120 0
53 78 0
-53 -78 0
53 86 0
-53 -86 0
53 99 0
-53 -99 0
53 109 0
-53 -109 0
53 129 0
-53 -129 0
54 63 0
-54 -63 0
54 65 0
-54 -65 0
54 66 0
-54 -66 0
54 71 0
-54 -71 0
54 95 0
-54 -95 0
54 100 0
-54 -100 0
54 101 0
-54 -101 0
54 116 0
-54 -116 0
54 119 0
-54 -119 0
54 131 0
-54 -131 0
54 137 0
-54 -137 0
55 58 0
-55 -58 0
55 74 0
-55 -74 0
55 90 0
-55 -90 0
55 99 0
-55 -99 0
55 104 0
-55 -104 0
55 113 0
-55 -113 0
55 122 0
-55 -122 0
55 136 0
-55 -136 0
55 138 0
-55 -138 0
56 57 0
-56 -57 0
56 59 0
-56 -59 0
56 67 0
-56 -67 0
56 100 0
-56 -100 0
56 106 0
-56 -106 0
56 107 0
-56 -107 0
56 112 0
-56 -112 0
56 116 0
-56 -116 0
56 126 0
-56 -126 0
56 130 0
-56 -130 0
56 134 0
-56 -134 0
56 135 0
-56 -135 0
57 66 0
-57 -66 0
57 67 0
-57 -67 0
57 69 0
-57 -69 0
57 70 0
-57 -70 0
57 105 0
-57 -105 0
57 116 0
-57 -116 0
57 136 0
-57 -136 0
58 65 0
-58 -65 0
58 67 0
-58 -67 0
58 68 0
-58 -68 0
58 85 0
-58 -85 0
58 97 0
-58 -97 0
58 103 0
-58 -103 0
58 113 0
-58 -113 0
59 66 0
-59 -66 0
59 71 0
-59 -71 0
59 81 0
-59 -81 0
59 86 0
-59 -86 0
59 103 0
-59 -103 0
59 110 0
-59 -110 0
59 112 0
-59 -112 0
59 118 0
-59 -118 0
59 126 0
-59 -126 0
59 128 0
-59 -128 0
59 138 0
-59 -138 0
60 73 0
-60 -73 0
60 91 0
-60 -91 0
60 99 0
-60 -99 0
60 101 0
-60 -101 0
60 109 0
-60 -109 0
60 111 0
-60 -111 0
60 114 0
-60 -114 0
60 124 0
-60 -124 0
60 131 0
-60 -131 0
61 73 0
-61 -73 0
61 110 0
-61 -110 0
61 112 0
-61 -112 0
61 125 0
-61 -125 0
61 136 0
-61 -136 0
62 82 0
-62 -82 0
62 88 0
-62 -88 0
62 112 0
-62 -112 0
62 116 0
-62 -116 0
62 123 0
-62 -123 0
63 66 0
-63 -66 0
63 72 0
-63 -72 0
63 73 0
-63 -73 0
63 74 0
-63 -74 0
63 89 0
-63 -89 0
63 95 0
-63 -95 0
63 105 0
-63 -105 0
63 108 0
-63 -108 0
63 111 0
-63 -111 0
63 119 0
-63 -119 0
63 123 0
-63 -123 0
63 124 0
-63 -124 0
63 125 0
-63 -125 0
63 132 0
-63 -132 0
64 65 0
-64 -65 0
64 76 0
-64 -76 0
64 82 0
-64 -82 0
64 89 0
-64 -89 0
64 98 0
-64 -98 0
64 107 0
-64 -107 0
64 112 0
-64 -112 0
64 117 0
-64 -117 0
64 118 0
-64 -118 0
64 125 0
-64 -125 0
64 126 0
-64 -126 0
64 130 0
-64 -130 0
65 72 0
-65 -72 0
65 77 0
-65 -77 0
65 81 0
-65 -81 0
65 87 0
-65 -87 0
65 88 0
-65 -88 0
65 91 0
-65 -91 0
65 97 0
-65 -97 0
65 106 0
-65 -106 0
65 107 0
-65 -107 0
65 108 0
-65 -108 0
65 114 0
-65 -114 0
65 118 0
-65 -118 0
65 120 0
-65 -120 0
65 122 0
-65 -122 0
65 126 0
-65 -126 0
66 71 0
-66 -71 0
66 77 0
-66 -77 0
66 78 0
-66 -78 0
66 89 0
-66 -89 0
66 90 0
-66 -90 0
66 91 0
-66 -91 0
66 112 0
-66 -112 0
66 125 0
-66 -125 0
66 128 0
-66 -128 0
66 130 0
-66 -130 0
67 85 0
-67 -85 0
67 89 0
-67 -89 0
67 90 0
-67 -90 0
67 95 0
-67 -95 0
67 100 0
-67 -100 0
67 105 0
-67 -105 0
67 120 0
-67 -120 0
67 135 0
-67 -135 0
67 136 0
-67 -136 0
68 72 0
-68 -72 0
68 101 0
-68 -101 0
68 108 0
-68 -108 0
68 130 0
-68 -130 0
68 137 0
-68 -137 0
69 71 0
-69 -71 0
69 74 0
-69 -74 0
69 76 0
-69 -76 0
69 84 0
-69 -84 0
69 87 0
-69 -87 0
69 100 0
-69 -100 0
69 103 0
-69 -103 0
69 114 0
-69 -114 0
69 120 0
-69 -120 0
69 124 0
-69 -124 0
69 138 0
-69 -138 0
70 79 0
-70 -79 0
70 81 0
-70 -81 0
70 105 0
-70 -105 0
70 122 0
-70 -122 0
70 123 0
-70 -123 0
70 140 0
-70 -140 0
71 86 0
-71 -86 0
71 89 0
-71 -89 0
71 90 0
-71 -90 0
71 95 0
-71 -95 0
71 107 0
-71 -107 0
71 109 0
-71 -109 0
72 79 0
-72 -79 0
72 94 0
-72 -94 0
72 98 0
-72 -98 0
72 104 0
-72 -104 0
72 115 0
-72 -115 0
72 121 0
-72 -121 0
72 122 0
-72 -122 0
72 126 0
-72 -126 0
72 128 0
-72 -128 0
72 134 0
-72 -134 0
72 140 0
-72 -140 0
73 82 0
-73 -82 0
73 92 0
-73 -92 0
73 105 0
-73 -105 0
73 124 0
-73 -124 0
73 138 0
-73 -138 0
74 77 0
-74 -77 0
74 83 0
-74 -83 0
74 84 0
-74 -84 0
74 86 0
-74 -86 0
74 89 0
-74 -89 0
74 117 0
-74 -117 0
74 123 0
-74 -123 0
74 132 0
-74 -132 0
74 133 0
-74 -133 0
75 80 0
-75 -80 0
75 90 0
-75 -90 0
75 99 0
-75 -99 0
75 101 0
-75 -101 0
75 102 0
-75 -102 0
75 120 0
-75 -120 0
75 132 0
-75 -132 0
75 134 0
-75 -134 0
75 135 0
-75 -135 0
76 96 0
-76 -96 0
76 98 0
-76 -98 0
76 103 0
-76 -103 0
76 109 0
-76 -109 0
76 110 0
-76 -110 0
76 122 0
-76 -122 0
77 79 0
-77 -79 0
77 94 0
-77 -94 0
77 97 0
-77 -97 0
77 99 0
-77 -99 0
77 101 0
-77 -101 0
77 117 0
-77 -117 0
77 123 0
-77 -123 0
77 125 0
-77 -125 0
77 136 0
-77 -136 0
78 79 0
-78 -79 0
78 106 0
-78 -106 0
78 109 0
-78 -109 0
78 113 0
-78 -113 0
78 115 0
-78 -115 0
78 119 0
-78 -119 0
78 132 0
-78 -132 0
78 135 0
-78 -135 0
78 137 0
-78 -137 0
79 94 0
-79 -94 0
79 103 0
-79 -103 0
79 120 0
-79 -120 0
79 133 0
-79 -133 0
79 136 0
-79 -136 0
80 81 0
-80 -81 0
80 84 0
-80 -84 0
80 92 0
-80 -92 0
80 93 0
-80 -93 0
80 97 0
-80 -97 0
80 98 0
-80 -98 0
80 117 0
-80 -117 0
80 125 0
-80 -125 0
80 132 0
-80 -132 0
80 135 0
-80 -135 0
80 136 0
-80 -136 0
81 90 0
-81 -90 0
81 98 0
-81 -98 0
81 104 0
-81 -104 0
81 123 0
-81 -123 0
81 135 0
-81 -135 0
81 138 0
-81 -138 0
82 83 0
-82 -83 0
82 98 0
-82 -98 0
82 103 0
-82 -103 0
82 114 0
-82 -114 0
82 122 0
-82 -122 0
82 126 0
-82 -126 0
82 134 0
-82 -134 0
82 137 0
-82 -137 0
83 101 0
-83 -101 0
83 103 0
-83 -103 0
83 109 0
-83 -109 0
83 115 0
-83 -115 0
83 126 0
-83 -126 0
83 134 0
-83 -134 0
84 85 0
-84 -85 0
84 90 0
-84 -90 0
84 94 0
-84 -94 0
84 99 0
-84 -99 0
84 100 0
-84 -100 0
84 113 0
-84 -113 0
84 117 0
-84 -117 0
84 122 0
-84 -122 0
84 123 0
-84 -123 0
84 125 0
-84 -125 0
84 133 0
-84 -133 0
84 140 0
-84 -140 0
85 93 0
-85 -93 0
85 103 0
-85 -103 0
85 107 0
-85 -107 0
85 119 0
-85 -119 0
85 121 0
-85 -121 0
85 130 0
-85 -130 0
86 95 0
-86 -95 0
86 100 0
-86 -100 0
86 101 0
-86 -101 0
86 125 0
-86 -125 0
86 130 0
-86 -130 0
86 132 0
-86 -132 0
86 136 0
-86 -136 0
86 139 0
-86 -139 0
87 91 0
-87 -91 0
87 92 0
-87 -92 0
87 94 0
-87 -94 0
87 108 0
-87 -108 0
87 115 0
-87 -115 0
87 116 0
-87 -116 0
87 128 0
-87 -128 0
87 133 0
-87 -133 0
87 134 0
-87 -134 0
87 137 0
-87 -137 0
88 104 0
-88 -104 0
88 108 0
-88 -108 0
88 117 0
-88 -117 0
88 130 0
-88 -130 0
89 100 0
-89 -100 0
89 105 0
-89 -105 0
89 140 0
-89 -140 0
90 99 0
-90 -99 0
90 103 0
-90 -103 0
91 117 0
-91 -117 0
92 95 0
-92 -95 0
92 97 0
-92 -97 0
92 99 0
-92 -99 0
92 104 0
-92 -104 0
92 121 0
-92 -121 0
92 127 0
-92 -127 0
92 133 0
-92 -133 0
92 137 0
-92 -137 0
93 105 0
-93 -105 0
93 107 0
-93 -107 0
93 121 0
-93 -121 0
93 130 0
-93 -130 0
93 140 0
-93 -140 0
94 102 0
-94 -102 0
94 108 0
-94 -108 0
94 113 0
-94 -113 0
95 100 0
-95 -100 0
95 104 0
-95 -104 0
95 108 0
-95 -108 0
95 111 0
-95 -111 0
95 112 0
-95 -112 0
95 114 0
-95 -114 0
95 116 0
-95 -116 0
95 123 0
-95 -123 0
95 126 0
-95 -126 0
95 129 0
-95 -129 0
95 130 0
-95 -130 0
96 122 0
-96 -122 0
97 100 0
-97 -100 0
97 104 0
-97 -104 0
97 109 0
-97 -109 0
97 112 0
-97 -112 0
97 117 0
-97 -117 0
97 118 0
-97 -118 0
97 120 0
-97 -120 0
97 129 0
-97 -129 0
98 102 0
-98 -102 0
98 106 0
-98 -106 0
98 108 0
-98 -108 0
98 122 0
-98 -122 0
98 136 0
-98 -136 0
99 124 0
-99 -124 0
100 101 0
-100 -101 0
100 108 0
-100 -108 0
100 113 0
-100 -113 0
100 114 0
-100 -114 0
100 125 0
-100 -125 0
101 104 0
-101 -104 0
101 111 0
-101 -111 0
101 120 0
-101 -120 0
101 124 0
-101 -124 0
101 127 0
-101 -127 0
101 133 0
-101 -133 0
102 128 0
-102 -128 0
102 136 0
-102 -136 0
103 109 0
-103 -109 0
103 135 0
-103 -135 0
104 114 0
-104 -114 0
104 123 0
-104 -123 0
104 124 0
-104 -124 0
104 127 0
-104 -127 0
105 122 0
-105 -122 0
106 116 0
-106 -116 0
106 126 0
-106 -126 0
107 110 0
-107 -110 0
107 112 0
-107 -112 0
107 124 0
-107 -124 0
107 137 0
-107 -137 0
108 125 0
-108 -125 0
108 134 0
-108 -134 0
109 111 0
-109 -111 0
109 123 0
-109 -123 0
109 124 0
-109 -124 0
109 131 0
-109 -131 0
109 138 0
-109 -138 0
110 119 0
-110 -119 0
110 120 0
-110 -120 0
111 118 0
-111 -118 0
111 129 0
-111 -129 0
111 136 0
-111 -136 0
112 114 0
-112 -114 0
112 124 0
-112 -124 0
112 126 0
-112 -126 0
112 128 0
-112 -128 0
112 130 0
-112 -130 0
113 117 0
-113 -117 0
113 127 0
-113 -127 0
113 128 0
-113 -128 0
113 132 0
-113 -132 0
113 134 0
-113 -134 0
113 136 0
-113 -136 0
114 116 0
-114 -116 0
114 118 0
-114 -118 0
114 121 0
-114 -121 0
114 122 0
-114 -122 0
114 127 0
-114 -127 0
114 137 0
-114 -137 0
115 120 0
-115 -120 0
115 126 0
-115 -126 0
115 134 0
-115 -134 0
116 117 0
-116 -117 0
116 118 0
-116 -118 0
117 118 0
-117 -118 0
117 124 0
-117 -124 0
117 133 0
-117 -133 0
118 119 0
-118 -119 0
118 120 0
-118 -120 0
119 127 0
-119 -127 0
119 134 0
-119 -134 0
120 121 0
-120 -121 0
121 124 0
-121 -124 0
121 126 0
-121 -126 0
122 127 0
-122 -127 0
122 129 0
-122 -129 0
123 128 0
-123 -128 0
123 130 0
-123 -130 0
123 138 0
-123 -138 0
124 138 0
-124 -138 0
125 140 0
-125 -140 0
126 134 0
-126 -134 0
126 137 0
-126 -137 0
127 131 0
-127 -131 0
127 139 0
-127 -139 0
128 130 0
-128 -130 0
128 134 0
-128 -134 0
130 140 0
-130 -140 0
131 138 0
-131 -138 0
132 133 0
-132 -133 0
132 137 0
-132 -137 0
133 136 0
-133 -136 0
135 136 0
-135 -136 0
135 139 0
-135 -139 0
