FourierSAT_Github_AIJ/res/fs_1core/s2v140c2300-2.cnf.txt
o 404
o 403
